sat
(:added-eqs                   1998
 :arith-eq-adapter            124
 :arith-bound-propagations-lp 4
 :arith-diseq                 21
 :arith-fixed-eqs             89
 :arith-lower                 113
 :arith-make-feasible         30
 :arith-max-columns           183
 :arith-max-rows              116
 :arith-offset-eqs            11
 :arith-upper                 185
 :binary-propagations         1285
 :conflicts                   14
 :decisions                   175
 :del-clause                  633
 :final-checks                8
 :max-memory                  19.84
 :memory                      17.60
 :mk-bool-var                 2420
 :mk-clause                   1360
 :mk-clause-binary            1564
 :num-allocs                  650998
 :num-checks                  2
 :propagations                1831
 :rlimit-count                13971
 :seq-add-axiom               375
 :seq-branch                  1
 :seq-char2bit                20
 :seq-fixed-length            5
 :seq-length-coherence        1
 :seq-num-reductions          156
 :time                        0.01
 :total-time                  0.02)
